50

94 44 193
92 17 371
89 32 187
88 4 383
88 11 368
87 22 283
86 6 304
84 26 304
82 15 459
82 4 470
81 28 249
79 26 251
77 21 184
77 15 425
77 26 245
76 14 272
73 26 340
72 8 410
70 32 466
69 16 294
68 22 354
68 29 466
65 19 448
63 6 429
63 27 484
61 15 246
59 17 383
58 23 428
57 15 373
55 24 294
54 11 303
52 18 191
52 3 472
52 13 274
51 13 462
48 11 341
46 18 191
43 8 396
40 19 395
38 8 251
37 7 430
37 9 230
36 18 449
35 17 265
35 7 254
35 17 310
34 12 450
34 14 205
34 1 207
33 6 493
